% File represents an instance of a Composite Structure problem to be solved by a CP framework
% Created on 2025-03-26 10:41:39.616
T = 52;
n = 25;
m = 40;
edges = [(2, 1),
(7, 6),
(12, 11),
(16, 17),
(22, 21),
(3, 2),
(7, 8),
(13, 12),
(18, 17),
(22, 23),
(3, 4),
(9, 8),
(14, 13),
(19, 18),
(24, 23),
(4, 5),
(10, 9),
(15, 14),
(20, 19),
(25, 24),
(1, 6),
(11, 6),
(16, 11),
(16, 21),
(2, 7),
(7, 12),
(12, 17),
(22, 17),
(3, 8),
(13, 8),
(13, 18),
(18, 23),
(9, 4),
(14, 9),
(14, 19),
(19, 24),
(10, 5),
(15, 10),
(15, 20),
(20, 25)];
counts = [|6, 10, 6, 16,
|6, 12, 6, 18,
|6, 12, 6, 20,
|6, 10, 6, 20,
|6, 8, 6, 20,
|6, 6, 6, 16,
|6, 12, 6, 16,
|6, 10, 6, 16,
|6, 12, 6, 20,
|6, 14, 6, 20,
|6, 8, 6, 16,
|6, 10, 6, 16,
|6, 12, 6, 20,
|6, 16, 6, 20,
|8, 16, 8, 20,
|6, 12, 6, 16,
|6, 8, 6, 16,
|6, 12, 6, 18,
|6, 14, 6, 20,
|6, 16, 6, 20,
|6, 12, 6, 14,
|6, 12, 6, 18,
|6, 10, 6, 18,
|6, 12, 6, 18,
|6, 16, 6, 18|];
